db/data/14734205762992094858441275371094617140.z3.out
-------------------
2500.199032369
